benchmarks_vrp/CMT3/fixed_c/CMT3_8.vrp
NAME: CMT3_8
TYPE: CVRP
COMMENT: 826.14 - Cluster Nr.8
DIMENSION: 14
CAPACITY: 200
EDGE_WEIGHT_TYPE: EUC_2D
NODE_COORD_TYPE: TWOD_COORDS
NODE_COORD_SECTION: 
12 15 10
14 12 24
4 19 21
13 16 22
1 20 20
3 11 14
5 18 18
7 15 19
2 10 20
8 5 30
9 11 31
6 35 35
10 5 5
11 4 18
DEPOT_SECTION: 
6
-1
DEMAND_SECTION: 
8 2
2 19
12 20
4 10
11 35
13 41
10 16
3 18
1 8
7 1
9 7
6 0
14 13
5 17
EOF
