benchmarks_vrp/CMT3/fixed_c/CMT3_8.tour
NAME: CMT3_8 solution
TYPE: TOUR
TOUR_SECTION:
6 4 -1
6 1 5 7 13 14 2 3 12 10 11 8 9 -1
-1
EOF